c  This is the sudoku1.txt read from and written back to Dimacs format. 
p cnf 64 453
1 0
2 0
3 0
4 0
5 0
1 6 7 8 0
9 10 11 12 0
13 2 14 15 0
16 17 18 19 0
20 21 22 23 0
24 3 25 26 0
27 28 29 30 0
31 32 33 34 0
35 36 37 38 0
39 40 41 42 0
43 44 4 45 0
46 47 48 49 0
50 51 52 53 0
54 55 56 57 0
58 59 60 61 0
62 63 64 5 0
1 9 13 16 0
6 10 2 17 0
7 11 14 18 0
8 12 15 19 0
20 24 27 31 0
21 3 28 32 0
22 25 29 33 0
23 26 30 34 0
35 39 43 46 0
36 40 44 47 0
37 41 4 48 0
38 42 45 49 0
50 54 58 62 0
51 55 59 63 0
52 56 60 64 0
53 57 61 5 0
1 20 35 50 0
6 21 36 51 0
7 22 37 52 0
8 23 38 53 0
9 24 39 54 0
10 3 40 55 0
11 25 41 56 0
12 26 42 57 0
13 27 43 58 0
2 28 44 59 0
14 29 4 60 0
15 30 45 61 0
16 31 46 62 0
17 32 47 63 0
18 33 48 64 0
19 34 49 5 0
1 9 20 24 0
6 10 21 3 0
7 11 22 25 0
8 12 23 26 0
13 16 27 31 0
2 17 28 32 0
14 18 29 33 0
15 19 30 34 0
35 39 50 54 0
36 40 51 55 0
37 41 52 56 0
38 42 53 57 0
43 46 58 62 0
44 47 59 63 0
4 48 60 64 0
45 49 61 5 0
-1 -6 0
-1 -7 0
-1 -8 0
-6 -7 0
-6 -8 0
-7 -8 0
-9 -10 0
-9 -11 0
-9 -12 0
-10 -11 0
-10 -12 0
-11 -12 0
-13 -2 0
-13 -14 0
-13 -15 0
-2 -14 0
-2 -15 0
-14 -15 0
-16 -17 0
-16 -18 0
-16 -19 0
-17 -18 0
-17 -19 0
-18 -19 0
-20 -21 0
-20 -22 0
-20 -23 0
-21 -22 0
-21 -23 0
-22 -23 0
-24 -3 0
-24 -25 0
-24 -26 0
-3 -25 0
-3 -26 0
-25 -26 0
-27 -28 0
-27 -29 0
-27 -30 0
-28 -29 0
-28 -30 0
-29 -30 0
-31 -32 0
-31 -33 0
-31 -34 0
-32 -33 0
-32 -34 0
-33 -34 0
-35 -36 0
-35 -37 0
-35 -38 0
-36 -37 0
-36 -38 0
-37 -38 0
-39 -40 0
-39 -41 0
-39 -42 0
-40 -41 0
-40 -42 0
-41 -42 0
-43 -44 0
-43 -4 0
-43 -45 0
-44 -4 0
-44 -45 0
-4 -45 0
-46 -47 0
-46 -48 0
-46 -49 0
-47 -48 0
-47 -49 0
-48 -49 0
-50 -51 0
-50 -52 0
-50 -53 0
-51 -52 0
-51 -53 0
-52 -53 0
-54 -55 0
-54 -56 0
-54 -57 0
-55 -56 0
-55 -57 0
-56 -57 0
-58 -59 0
-58 -60 0
-58 -61 0
-59 -60 0
-59 -61 0
-60 -61 0
-62 -63 0
-62 -64 0
-62 -5 0
-63 -64 0
-63 -5 0
-64 -5 0
-1 -9 0
-6 -10 0
-7 -11 0
-8 -12 0
-1 -13 0
-6 -2 0
-7 -14 0
-8 -15 0
-1 -16 0
-6 -17 0
-7 -18 0
-8 -19 0
-9 -13 0
-10 -2 0
-11 -14 0
-12 -15 0
-9 -16 0
-10 -17 0
-11 -18 0
-12 -19 0
-13 -16 0
-2 -17 0
-14 -18 0
-15 -19 0
-20 -24 0
-21 -3 0
-22 -25 0
-23 -26 0
-20 -27 0
-21 -28 0
-22 -29 0
-23 -30 0
-20 -31 0
-21 -32 0
-22 -33 0
-23 -34 0
-24 -27 0
-3 -28 0
-25 -29 0
-26 -30 0
-24 -31 0
-3 -32 0
-25 -33 0
-26 -34 0
-27 -31 0
-28 -32 0
-29 -33 0
-30 -34 0
-35 -39 0
-36 -40 0
-37 -41 0
-38 -42 0
-35 -43 0
-36 -44 0
-37 -4 0
-38 -45 0
-35 -46 0
-36 -47 0
-37 -48 0
-38 -49 0
-39 -43 0
-40 -44 0
-41 -4 0
-42 -45 0
-39 -46 0
-40 -47 0
-41 -48 0
-42 -49 0
-43 -46 0
-44 -47 0
-4 -48 0
-45 -49 0
-50 -54 0
-51 -55 0
-52 -56 0
-53 -57 0
-50 -58 0
-51 -59 0
-52 -60 0
-53 -61 0
-50 -62 0
-51 -63 0
-52 -64 0
-53 -5 0
-54 -58 0
-55 -59 0
-56 -60 0
-57 -61 0
-54 -62 0
-55 -63 0
-56 -64 0
-57 -5 0
-58 -62 0
-59 -63 0
-60 -64 0
-61 -5 0
-1 -20 0
-6 -21 0
-7 -22 0
-8 -23 0
-9 -24 0
-10 -3 0
-11 -25 0
-12 -26 0
-13 -27 0
-2 -28 0
-14 -29 0
-15 -30 0
-16 -31 0
-17 -32 0
-18 -33 0
-19 -34 0
-1 -35 0
-6 -36 0
-7 -37 0
-8 -38 0
-9 -39 0
-10 -40 0
-11 -41 0
-12 -42 0
-13 -43 0
-2 -44 0
-14 -4 0
-15 -45 0
-16 -46 0
-17 -47 0
-18 -48 0
-19 -49 0
-1 -50 0
-6 -51 0
-7 -52 0
-8 -53 0
-9 -54 0
-10 -55 0
-11 -56 0
-12 -57 0
-13 -58 0
-2 -59 0
-14 -60 0
-15 -61 0
-16 -62 0
-17 -63 0
-18 -64 0
-19 -5 0
-20 -35 0
-21 -36 0
-22 -37 0
-23 -38 0
-24 -39 0
-3 -40 0
-25 -41 0
-26 -42 0
-27 -43 0
-28 -44 0
-29 -4 0
-30 -45 0
-31 -46 0
-32 -47 0
-33 -48 0
-34 -49 0
-20 -50 0
-21 -51 0
-22 -52 0
-23 -53 0
-24 -54 0
-3 -55 0
-25 -56 0
-26 -57 0
-27 -58 0
-28 -59 0
-29 -60 0
-30 -61 0
-31 -62 0
-32 -63 0
-33 -64 0
-34 -5 0
-35 -50 0
-36 -51 0
-37 -52 0
-38 -53 0
-39 -54 0
-40 -55 0
-41 -56 0
-42 -57 0
-43 -58 0
-44 -59 0
-4 -60 0
-45 -61 0
-46 -62 0
-47 -63 0
-48 -64 0
-49 -5 0
-1 -9 0
-1 -20 0
-1 -24 0
-9 -20 0
-9 -24 0
-20 -24 0
-6 -10 0
-6 -21 0
-6 -3 0
-10 -21 0
-10 -3 0
-21 -3 0
-7 -11 0
-7 -22 0
-7 -25 0
-11 -22 0
-11 -25 0
-22 -25 0
-8 -12 0
-8 -23 0
-8 -26 0
-12 -23 0
-12 -26 0
-23 -26 0
-13 -16 0
-13 -27 0
-13 -31 0
-16 -27 0
-16 -31 0
-27 -31 0
-2 -17 0
-2 -28 0
-2 -32 0
-17 -28 0
-17 -32 0
-28 -32 0
-14 -18 0
-14 -29 0
-14 -33 0
-18 -29 0
-18 -33 0
-29 -33 0
-15 -19 0
-15 -30 0
-15 -34 0
-19 -30 0
-19 -34 0
-30 -34 0
-35 -39 0
-35 -50 0
-35 -54 0
-39 -50 0
-39 -54 0
-50 -54 0
-36 -40 0
-36 -51 0
-36 -55 0
-40 -51 0
-40 -55 0
-51 -55 0
-37 -41 0
-37 -52 0
-37 -56 0
-41 -52 0
-41 -56 0
-52 -56 0
-38 -42 0
-38 -53 0
-38 -57 0
-42 -53 0
-42 -57 0
-53 -57 0
-43 -46 0
-43 -58 0
-43 -62 0
-46 -58 0
-46 -62 0
-58 -62 0
-44 -47 0
-44 -59 0
-44 -63 0
-47 -59 0
-47 -63 0
-59 -63 0
-4 -48 0
-4 -60 0
-4 -64 0
-48 -60 0
-48 -64 0
-60 -64 0
-45 -49 0
-45 -61 0
-45 -5 0
-49 -61 0
-49 -5 0
-61 -5 0
